6909
99,114,102,70,108,86,135,50,137,132,65,85,142,18,75,26,146,56,83,90,92,54,46,138,134,133,15,78,21,88,94,121,79,59,16,111,105,33,126,52,93,35,124,97,143,100,5,107,95,82,7,84,8,89,96,30,34,103,98,1,87,76,73,48,63,10,113,3,62,149,125,22,104,4,150,115,44,71,45,128,68,119,91,106,13,74,123,136,112,64,145,31,27,117,140,60,66,17,130,148,11,61,36,69,127,116,101,39,57,41,129,144,147,49,72,80,14,122,77,131,32,23,38,67,109,43,12,24,118,53,40,139,120,42,9,28,6,37,2,110,47,51,20,25,141,55,58,81,29,19,99
